words_hard_train/4069.qaiger
aag 35 11 0 1 24
2
4
8
10
14
16
24
26
32
42
50
71
6 2 5
12 8 10
18 14 16
20 12 18
22 6 20
28 24 26
30 22 28
34 32 2
36 34 20
38 37 4
40 31 39
44 42 25
46 44 27
48 45 26
52 49 50
54 47 53
56 33 9
58 15 3
60 58 17
62 56 60
64 62 11
66 65 5
68 55 67
70 40 69
i0 1 x2[5]
i1 1 x2[7]
i2 1 x2[4]
i3 1 x2[6]
i4 1 x2[2]
i5 1 x2[3]
i6 1 x2[0]
i7 1 x2[1]
i8 2 y1[7]
i9 2 y1[5]
i10 2 y1[6]
o0 bv[0]
c
simplified
  <=
    add
      1 x2
      or
        1
        1
    >> 5
      2 y1
