words_hard_train/4069.qaiger.qdimacs
p cnf 35 73
a 1 2 4 5 7 8 12 13 0
e 3 6 9 10 11 14 15 16 17 18 19 20 21 22 23 24 25 26 27 28 29 30 31 32 33 34 35 0
-1 2 3 0
1 -3 0
-2 -3 0
-4 -5 6 0
4 -6 0
5 -6 0
-7 -8 9 0
7 -9 0
8 -9 0
-6 -9 10 0
6 -10 0
9 -10 0
-3 -10 11 0
3 -11 0
10 -11 0
-12 -13 14 0
12 -14 0
13 -14 0
-11 -14 15 0
11 -15 0
14 -15 0
-16 -1 17 0
16 -17 0
1 -17 0
-17 -10 18 0
17 -18 0
10 -18 0
18 -2 19 0
-18 -19 0
2 -19 0
15 19 20 0
-15 -20 0
-19 -20 0
-21 12 22 0
21 -22 0
-12 -22 0
-22 13 23 0
22 -23 0
-13 -23 0
22 -13 24 0
-22 -24 0
13 -24 0
24 -25 26 0
-24 -26 0
25 -26 0
23 26 27 0
-23 -27 0
-26 -27 0
16 4 28 0
-16 -28 0
-4 -28 0
7 1 29 0
-7 -29 0
-1 -29 0
-29 8 30 0
29 -30 0
-8 -30 0
-28 -30 31 0
28 -31 0
30 -31 0
-31 5 32 0
31 -32 0
-5 -32 0
32 2 33 0
-32 -33 0
-2 -33 0
27 33 34 0
-27 -34 0
-33 -34 0
-20 34 35 0
20 -35 0
-34 -35 0
-35 0
